# Node Net
1980   1
3543   1
241   1
2641   1
3595   1
  2   1
2580   2
781   2
 54   2
3547   2
2760   2
3360   2
 51   3
3581   3
3120   3
 59   3
3569   3
3587   3
2940   4
 29   4
2221   4
 60   4
2280   4
2041   4
3554   5
2821   5
3553   5
1140   5
 42   5
3560   6
3541   6
1920   6
1860   6
1741   6
3240   7
3060   7
  8   7
1680   8
600   8
3564   8
 48   9
420   9
 37   9
3592  10
1081  10
780  10
 40  11
2520  11
2400  11
1501  12
3590  12
1561  12
 39  13
3544  13
 56  13
